(set-logic HORN)
(declare-fun state (Int Int Int Bool Int (Array Int Int) Bool Int (Array Int Int) Bool Int (Array Int Int) Int (Array Int Int) Int) Bool)
(assert (forall ((|.x.14| Int) (|main@%.0.i_0_0| Int) (|main@%_2_0_0| Int) (|main@%assume.flag.0_0_0| Bool) (|main@%_5_0_0| Int) (|main@%shadow.mem.3_0_0| (Array Int Int)) (|main@%_4_0_0| Bool) (|main@%.2.i1_0_0| Int) (|main@%shadow.mem.2_0_0| (Array Int Int)) (|main@%_3_0_0| Bool) (|main@%.1.i2_0_0| Int) (|main@%shadow.mem.1_0_0| (Array Int Int)) (|main@%.01.i6_0_0| Int) (|main@%shadow.mem.0_0_0| (Array Int Int)) (|@nd_0_0| Int) (|.x.23| Int) (|main@%_5_1| Int) (|main@%_2_1| Int) (|main@%_3_1| Bool) (|main@%_4_1| Bool) (|main@%.01.i6_2| Int) (|.x.15| Int) (|.x.16| Int) (|.x.17| Bool) (|.x.18| (Array Int Int)) (|main@%shadow.mem.0_2| (Array Int Int)) (|.x.22| (Array Int Int)) (|.x.21| Int) (|.x.20| (Array Int Int)) (|.x.19| Int)) (=> (= .x.14 0) (state |.x.14| |main@%.0.i_0_0| |main@%_2_0_0| |main@%assume.flag.0_0_0| |main@%_5_0_0| |main@%shadow.mem.3_0_0| |main@%_4_0_0| |main@%.2.i1_0_0| |main@%shadow.mem.2_0_0| |main@%_3_0_0| |main@%.1.i2_0_0| |main@%shadow.mem.1_0_0| |main@%.01.i6_0_0| |main@%shadow.mem.0_0_0| |@nd_0_0|))))
(assert (forall ((|.x.14| Int) (|main@%.0.i_0_0| Int) (|main@%_2_0_0| Int) (|main@%assume.flag.0_0_0| Bool) (|main@%_5_0_0| Int) (|main@%shadow.mem.3_0_0| (Array Int Int)) (|main@%_4_0_0| Bool) (|main@%.2.i1_0_0| Int) (|main@%shadow.mem.2_0_0| (Array Int Int)) (|main@%_3_0_0| Bool) (|main@%.1.i2_0_0| Int) (|main@%shadow.mem.1_0_0| (Array Int Int)) (|main@%.01.i6_0_0| Int) (|main@%shadow.mem.0_0_0| (Array Int Int)) (|@nd_0_0| Int) (|.x.23| Int) (|main@%_5_1| Int) (|main@%_2_1| Int) (|main@%_3_1| Bool) (|main@%_4_1| Bool) (|main@%.01.i6_2| Int) (|.x.15| Int) (|.x.16| Int) (|.x.17| Bool) (|.x.18| (Array Int Int)) (|main@%shadow.mem.0_2| (Array Int Int)) (|.x.22| (Array Int Int)) (|.x.21| Int) (|.x.20| (Array Int Int)) (|.x.19| Int)) (=> (and (state |.x.14| |main@%.0.i_0_0| |main@%_2_0_0| |main@%assume.flag.0_0_0| |main@%_5_0_0| |main@%shadow.mem.3_0_0| |main@%_4_0_0| |main@%.2.i1_0_0| |main@%shadow.mem.2_0_0| |main@%_3_0_0| |main@%.1.i2_0_0| |main@%shadow.mem.1_0_0| |main@%.01.i6_0_0| |main@%shadow.mem.0_0_0| |@nd_0_0|) (let ((.def_46 (= .x.15 1))) (let ((.def_49 (= main@%.0.i_0_0 .x.16))) (let ((.def_52 (= main@%assume.flag.0_0_0 .x.17))) (let ((.def_55 (= main@%shadow.mem.3_0_0 .x.18))) (let ((.def_59 (= .x.16 0))) (let ((.def_64 (= .x.15 4))) (let ((.def_66 (= main@%.01.i6_0_0 main@%.01.i6_2))) (let ((.def_69 (= main@%shadow.mem.0_0_0 main@%shadow.mem.0_2))) (let ((.def_76 (<= (+ main@%_2_0_0 (* (- 1) main@%.01.i6_0_0)) 1))) (let ((.def_83 (store main@%shadow.mem.0_0_0 (+ main@%_5_0_0 main@%.01.i6_0_0) 42))) (let ((.def_91 (<= main@%_5_0_0 0))) (let ((.def_92 (not .def_91))) (let ((.def_96 (or .def_91 (not (<= (+ main@%_5_0_0 main@%.01.i6_0_0) 0))))) (let ((.def_98 (= .x.14 1))) (let ((.def_100 (= main@%_2_0_0 main@%_2_1))) (let ((.def_102 (= main@%_5_0_0 main@%_5_1))) (let ((.def_104 (= main@%_4_0_0 main@%_4_1))) (let ((.def_106 (= main@%_3_0_0 main@%_3_1))) (let ((.def_110 (= main@%shadow.mem.1_0_0 .x.22))) (let ((.def_112 (= main@%.1.i2_0_0 .x.21))) (let ((.def_113 (and .def_110 .def_112))) (let ((.def_119 (and .def_55 (and .def_52 (and main@%_3_0_0 .def_49))))) (let ((.def_133 (= .x.15 2))) (let ((.def_149 (= main@%_4_0_0 .x.17))) (let ((.def_152 (not main@%_3_0_0))) (let ((.def_157 (<= (+ main@%_2_0_0 (* (- 1) main@%.1.i2_0_0)) 1))) (let ((.def_164 (store main@%shadow.mem.1_0_0 (+ main@%_5_0_0 main@%.1.i2_0_0) 43))) (let ((.def_167 (and .def_55 (and .def_49 .def_52)))) (let ((.def_181 (or .def_91 (not (<= (+ main@%_5_0_0 main@%.1.i2_0_0) 0))))) (let ((.def_183 (= .x.14 2))) (let ((.def_187 (= main@%shadow.mem.2_0_0 .x.20))) (let ((.def_189 (= main@%.2.i1_0_0 .x.19))) (let ((.def_190 (and .def_187 .def_189))) (let ((.def_209 (= .x.15 3))) (let ((.def_224 (and .def_149 (and .def_106 (and .def_104 (and .def_102 (and .def_100 (and .def_92 (and .def_69 (and .def_66 (and .def_64 (and .def_59 (and .def_110 (and .def_112 .def_190)))))))))))))) (let ((.def_233 (<= (+ main@%_2_0_0 (* (- 1) main@%.2.i1_0_0)) 1))) (let ((.def_240 (store main@%shadow.mem.2_0_0 (+ main@%_5_0_0 main@%.2.i1_0_0) 44))) (let ((.def_257 (or .def_91 (not (<= (+ main@%_5_0_0 main@%.2.i1_0_0) 0))))) (let ((.def_259 (= .x.14 3))) (let ((.def_272 (not (<= main@%_2_0_0 main@%.0.i_0_0)))) (let ((.def_291 (= (select main@%shadow.mem.3_0_0 (+ main@%.0.i_0_0 main@%_5_0_0)) 44))) (let ((.def_295 (or .def_91 (not (<= (+ main@%.0.i_0_0 main@%_5_0_0) 0))))) (let ((.def_297 (= .x.14 4))) (and (= @nd_0_0 .x.23) (or (or (or (or (or (or (and (or (or (or (and (or (and (and (= .x.14 0) (and (not (<= main@%_5_1 0)) (and (= (not (<= main@%_2_1 0)) main@%_3_1) (= main@%_3_1 main@%_4_1)))) (or (and (= main@%.01.i6_2 0) (and (and (and (and main@%_3_1 .def_46) .def_49) .def_52) .def_55)) (and (and (and (and (and (= main@%_4_1 .x.17) .def_59) (not main@%_3_1)) .def_64) .def_66) .def_69))) (and (and (and (and (and (and (and (and (not .def_76) (and (= (+ main@%.01.i6_0_0 (* (- 1) main@%.01.i6_2)) (- 1)) (and (= main@%shadow.mem.0_2 .def_83) (and .def_55 (and .def_52 (and .def_46 .def_49)))))) .def_92) .def_96) .def_98) .def_100) .def_102) .def_104) .def_106)) .def_113) (and (and (= .x.21 0) (and (= .def_83 .x.22) (and .def_106 (and .def_104 (and .def_102 (and .def_100 (and .def_98 (and .def_96 (and .def_92 (and .def_76 (and .def_69 (and .def_66 .def_119)))))))))))) .def_133)) (and (and (= .x.18 .def_83) (and (and .def_106 (and .def_104 (and .def_102 (and .def_100 (and .def_98 (and .def_96 (and .def_92 (and .def_76 (and .def_69 (and .def_66 (and .def_64 (and .def_59 .def_113)))))))))))) .def_149)) .def_152)) (and (and (and (not .def_157) (and (= (+ main@%.1.i2_0_0 (* (- 1) .x.21)) (- 1)) (and (= .x.22 .def_164) (and .def_133 (and .def_106 (and .def_104 (and .def_102 (and .def_100 (and .def_92 (and .def_69 (and .def_66 .def_167))))))))))) .def_181) .def_183)) .def_190) (and (and (= .x.19 0) (and (= .def_164 .x.20) (and .def_183 (and .def_181 (and .def_157 (and .def_106 (and .def_104 (and .def_102 (and .def_100 (and .def_92 (and .def_69 (and .def_66 (and .def_110 (and .def_112 .def_119)))))))))))))) .def_209)) (and (= .x.18 .def_164) (and .def_183 (and .def_181 (and .def_157 (and .def_152 .def_224)))))) (and (and (and (not .def_233) (and (= (+ main@%.2.i1_0_0 (* (- 1) .x.19)) (- 1)) (and (= .x.20 .def_240) (and .def_209 (and .def_106 (and .def_104 (and .def_102 (and .def_100 (and .def_92 (and .def_69 (and .def_66 (and .def_110 (and .def_112 .def_167))))))))))))) .def_257) .def_259)) (and (= .x.18 .def_240) (and .def_259 (and .def_257 (and .def_224 .def_233))))) (and (and (and (and (= (+ main@%.0.i_0_0 (* (- 1) .x.16)) (- 1)) (and (= .x.17 (and main@%assume.flag.0_0_0 .def_272)) (and .def_106 (and .def_104 (and .def_102 (and .def_100 (and .def_92 (and .def_69 (and .def_66 (and .def_64 (and .def_110 (and .def_112 (and .def_187 (and .def_55 .def_189)))))))))))))) .def_291) .def_295) .def_297)) (and (= .x.15 5) (and (not .def_291) (and .def_297 (and .def_295 (and .def_272 (and .def_106 (and .def_104 (and .def_102 (and .def_100 (and .def_92 (and .def_69 (and .def_66 (and .def_110 (and .def_112 (and .def_187 (and .def_189 (and .def_55 (and .def_52 (and main@%assume.flag.0_0_0 .def_49))))))))))))))))))))))))))))))))))))))))))))))))))))))))))))))))) (state |.x.15| |.x.16| |main@%_2_1| |.x.17| |main@%_5_1| |.x.18| |main@%_4_1| |.x.19| |.x.20| |main@%_3_1| |.x.21| |.x.22| |main@%.01.i6_2| |main@%shadow.mem.0_2| |.x.23|))))
(assert (forall ((|.x.14| Int) (|main@%.0.i_0_0| Int) (|main@%_2_0_0| Int) (|main@%assume.flag.0_0_0| Bool) (|main@%_5_0_0| Int) (|main@%shadow.mem.3_0_0| (Array Int Int)) (|main@%_4_0_0| Bool) (|main@%.2.i1_0_0| Int) (|main@%shadow.mem.2_0_0| (Array Int Int)) (|main@%_3_0_0| Bool) (|main@%.1.i2_0_0| Int) (|main@%shadow.mem.1_0_0| (Array Int Int)) (|main@%.01.i6_0_0| Int) (|main@%shadow.mem.0_0_0| (Array Int Int)) (|@nd_0_0| Int) (|.x.23| Int) (|main@%_5_1| Int) (|main@%_2_1| Int) (|main@%_3_1| Bool) (|main@%_4_1| Bool) (|main@%.01.i6_2| Int) (|.x.15| Int) (|.x.16| Int) (|.x.17| Bool) (|.x.18| (Array Int Int)) (|main@%shadow.mem.0_2| (Array Int Int)) (|.x.22| (Array Int Int)) (|.x.21| Int) (|.x.20| (Array Int Int)) (|.x.19| Int)) (=> (state |.x.14| |main@%.0.i_0_0| |main@%_2_0_0| |main@%assume.flag.0_0_0| |main@%_5_0_0| |main@%shadow.mem.3_0_0| |main@%_4_0_0| |main@%.2.i1_0_0| |main@%shadow.mem.2_0_0| |main@%_3_0_0| |main@%.1.i2_0_0| |main@%shadow.mem.1_0_0| |main@%.01.i6_0_0| |main@%shadow.mem.0_0_0| |@nd_0_0|) (not (= .x.14 5)))))
(check-sat)
